c 9th DIMACS Implementation Challenge: Shortest Paths
c http://www.dis.uniroma1.it/~challenge9
c TIGER/Line graph USA-road-t.NY
c
p sp 25 38
c graph contains 25 nodes and 38 arcs
c
a 1 2 2008
a 2 1 2008
a 1 3 10
a 3 1 10
a 3 4 395
a 4 5 395
a 5 6 100
a 6 5 60
a 5 7 60
a 7 8 80
a 8 9 90
a 9 10 400
a 10 11 320
a 10 5 5
a 10 9 5
a 10 14 2000
a 11 12 1500
a 12 13 1035
a 12 10 15
a 13 14 10
a 14 15 100
a 14 13 50
a 14 12 50
a 14 10 50
a 15 16 55
a 15 13 10
a 16 17 6
a 16 4	1
a 16 12 1935
a 16 17 1935
a 17 18 1935
a 18 19 1935
a 19 20 1935
a 20 21 1935
a 21 22 1935
a 22 23 1935
a 23 24 1935
a 24 25 1935
